p tw 165 472
0 1
0 2
0 121
0 136
0 147
0 152
1 91
2 3
2 4
2 5
2 121
2 136
2 147
2 152
3 4
3 5
3 104
4 5
4 105
4 106
4 107
4 108
5 59
5 60
5 61
6 7
6 18
6 24
6 157
7 118
7 142
7 144
8 9
8 10
8 56
8 61
8 128
8 152
9 10
9 43
9 63
9 75
9 138
10 125
10 149
11 12
11 13
11 14
11 48
11 86
11 87
11 88
12 13
12 14
12 72
12 73
12 74
12 75
13 14
13 35
13 36
14 148
15 16
15 17
15 18
15 19
15 20
15 25
16 17
16 18
16 19
16 20
16 119
16 120
17 18
17 19
17 20
17 23
18 19
18 20
18 24
18 157
19 20
19 45
19 46
20 89
20 115
20 132
20 160
21 22
21 99
22 143
22 146
22 154
23 24
23 25
24 25
24 157
26 27
26 28
26 98
27 28
27 109
27 110
27 111
27 112
27 113
28 133
28 134
28 135
29 30
29 31
29 117
29 131
29 139
29 141
30 31
30 76
31 42
31 67
31 100
31 101
31 102
31 103
32 33
32 34
32 51
32 52
32 53
33 34
33 37
34 164
35 36
35 72
36 73
37 46
37 53
37 160
37 164
38 39
38 97
38 144
38 154
38 157
39 146
40 41
40 116
40 140
41 95
41 96
41 97
42 43
42 44
42 67
42 100
42 101
42 102
42 103
43 44
43 63
43 75
43 138
44 79
45 46
45 115
46 53
46 160
46 164
47 48
47 49
47 50
47 67
47 68
47 69
47 70
47 71
48 49
48 50
48 86
48 87
48 88
49 50
49 162
50 82
51 52
51 53
51 92
52 53
52 114
52 137
52 158
52 163
53 160
53 164
54 55
54 56
54 90
54 109
54 126
54 135
54 145
54 151
55 56
55 127
56 61
56 128
56 152
57 58
57 81
57 85
57 138
57 149
57 150
58 80
58 153
59 60
59 61
59 129
59 136
60 61
60 108
60 130
60 147
61 128
61 152
62 63
62 74
62 85
63 75
63 138
64 65
64 66
64 151
65 66
65 102
66 100
66 145
67 68
67 69
67 70
67 71
67 100
67 101
67 102
67 103
68 69
68 70
68 71
68 82
69 70
69 71
69 87
69 148
69 161
70 71
70 86
70 155
70 156
71 123
71 124
72 73
72 74
72 75
73 74
73 75
74 75
74 85
75 138
76 79
76 101
76 120
76 139
77 78
77 89
77 90
78 125
78 126
78 127
78 128
79 101
79 120
79 139
80 81
80 153
81 85
81 138
81 149
81 150
83 84
83 111
84 94
84 113
84 114
85 138
85 149
85 150
86 87
86 88
86 155
86 156
87 88
87 148
87 161
88 162
89 90
89 115
89 132
89 160
90 109
90 126
90 135
90 145
90 151
91 106
91 121
91 122
92 112
92 133
92 137
93 94
93 158
94 113
94 114
95 96
95 97
95 116
95 117
95 118
96 97
96 99
96 140
96 141
96 142
96 143
97 144
97 154
97 157
98 110
98 134
98 163
99 140
99 141
99 142
99 143
100 101
100 102
100 103
100 145
101 102
101 103
101 120
101 139
102 103
103 124
103 156
103 161
104 107
104 150
104 153
105 106
105 107
105 108
105 159
106 107
106 108
106 121
106 122
107 108
107 150
107 153
108 130
108 147
109 110
109 111
109 112
109 113
109 126
109 135
109 145
109 151
110 111
110 112
110 113
110 134
110 163
111 112
111 113
112 113
112 133
112 137
113 114
114 137
114 158
114 163
115 132
115 160
116 117
116 118
116 140
117 118
117 131
117 139
117 141
118 142
118 144
119 120
119 131
119 132
120 139
121 122
121 136
121 147
121 152
122 159
123 124
123 155
124 156
124 161
125 126
125 127
125 128
125 149
126 127
126 128
126 135
126 145
126 151
127 128
128 152
129 130
129 136
130 147
131 132
131 139
131 141
132 160
133 134
133 135
133 137
134 135
134 163
135 145
135 151
136 147
136 152
137 158
137 163
138 149
138 150
139 141
140 141
140 142
140 143
141 142
141 143
142 143
142 144
143 146
143 154
144 154
144 157
145 151
146 154
147 152
148 161
149 150
150 153
154 157
155 156
156 161
158 163
160 164
